NAME : lr101.1650798.tour
COMMENT : Cost = 0_1650798
COMMENT : Found by LKH [Keld Helsgaun] Fri Sep 15 17:42:01 2017
TYPE : TOUR
DIMENSION : 125
TOUR_SECTION
1
37
48
20
9
47
18
121
40
24
105
68
56
26
117
31
52
102
10
67
2
119
64
65
50
49
109
3
22
74
42
57
5
113
28
70
77
80
4
55
25
81
112
53
7
120
34
30
79
35
36
78
114
15
45
106
39
44
14
110
93
43
16
88
58
98
118
66
72
82
51
69
104
115
32
89
8
11
116
96
99
17
87
92
101
123
73
76
23
75
103
59
111
60
100
95
97
108
6
84
62
86
38
94
124
29
13
41
54
107
27
125
46
83
19
85
61
90
122
63
12
91
21
33
71
-1
EOF
